09-routing/solutions/XSH-n20-k4-55.opt.sol
Route #1: 7 5 6 11 19 18
Route #2: 13 9 8 16
Route #3: 4 17 3 14 20
Route #4: 15 1 12 10 2
Cost 617
